p cnf 231 1491
132 146 0
128 169 225 0
107 113 159 0
104 108 121 134 142 0
87 89 148 0
138 151 0
77 140 153 156 0
135 160 0
126 162 167 0
100 102 118 119 171 0
94 97 99 154 0
103 106 115 124 0
92 110 164 208 0
85 149 0
83 84 0
81 136 144 152 217 0
76 141 219 0
74 75 161 0
95 127 223 0
155 172 176 228 0
116 177 230 0
178 180 0
181 183 0
79 157 0
185 187 0
168 189 191 194 196 0
120 131 198 199 201 0
174 203 204 0
105 117 205 0
90 122 150 163 209 0
211 212 213 0
82 145 216 218 0
78 80 143 220 0
190 192 197 0
101 133 147 202 0
221 222 224 226 0
175 227 229 0
207 231 0
111 158 166 0
72 86 88 179 0
67 69 71 0
63 64 65 137 0
60 61 62 139 0
56 57 58 184 0
55 125 186 188 0
53 54 130 200 0
51 93 96 98 0
49 50 173 0
48 91 0
45 46 47 210 0
-217 -219 0
-127 -155 0
-127 -177 0
-112 -127 0
-155 -177 0
-112 -155 0
-112 -177 0
-163 -211 0
-44 -163 0
-163 -216 0
-44 -211 0
-211 -216 0
-44 -216 0
-42 -147 0
-42 -221 0
-147 -221 0
-65 -72 0
-62 -72 0
-62 -65 0
-42 -72 0
-127 -163 0
-127 -147 0
-65 -127 0
-147 -163 0
-65 -163 0
-65 -147 0
-155 -211 0
-155 -221 0
-62 -155 0
-211 -221 0
-62 -211 0
-62 -221 0
-177 -217 0
-44 -217 0
-44 -177 0
-112 -219 0
-216 -219 0
-112 -216 0
-142 -169 0
-70 -169 0
-70 -142 0
-118 -153 0
-99 -153 0
-99 -118 0
-41 -79 0
-79 -168 0
-79 -120 0
-41 -168 0
-41 -120 0
-120 -168 0
-114 -122 0
-40 -114 0
-114 -143 0
-40 -122 0
-122 -143 0
-40 -143 0
-39 -101 0
-153 -169 0
-79 -114 0
-39 -79 0
-39 -114 0
-41 -122 0
-41 -101 0
-101 -122 0
-118 -142 0
-142 -168 0
-40 -142 0
-118 -168 0
-40 -118 0
-40 -168 0
-70 -99 0
-70 -120 0
-70 -143 0
-99 -120 0
-99 -143 0
-120 -143 0
-107 -206 0
-108 -206 0
-89 -206 0
-68 -206 0
-107 -108 0
-89 -107 0
-68 -107 0
-89 -108 0
-68 -108 0
-68 -89 0
-126 -195 0
-126 -171 0
-126 -129 0
-97 -126 0
-171 -195 0
-129 -195 0
-97 -195 0
-129 -171 0
-97 -171 0
-97 -129 0
-37 -38 0
-38 -223 0
-38 -228 0
-38 -230 0
-38 -165 0
-38 -178 0
-37 -223 0
-37 -228 0
-37 -230 0
-37 -165 0
-37 -178 0
-223 -228 0
-223 -230 0
-165 -223 0
-178 -223 0
-228 -230 0
-165 -228 0
-178 -228 0
-165 -230 0
-178 -230 0
-165 -178 0
-36 -181 0
-59 -181 0
-181 -185 0
-181 -189 0
-35 -181 0
-181 -198 0
-36 -59 0
-36 -185 0
-36 -189 0
-35 -36 0
-36 -198 0
-59 -185 0
-59 -189 0
-35 -59 0
-59 -198 0
-185 -189 0
-35 -185 0
-185 -198 0
-35 -189 0
-189 -198 0
-35 -198 0
-203 -205 0
-203 -209 0
-203 -212 0
-33 -203 0
-82 -203 0
-80 -203 0
-205 -209 0
-205 -212 0
-33 -205 0
-82 -205 0
-80 -205 0
-209 -212 0
-33 -209 0
-82 -209 0
-80 -209 0
-33 -212 0
-82 -212 0
-80 -212 0
-33 -82 0
-33 -80 0
-80 -82 0
-71 -179 0
-58 -179 0
-179 -186 0
-179 -193 0
-58 -71 0
-71 -186 0
-71 -193 0
-58 -186 0
-58 -193 0
-186 -193 0
-98 -200 0
-47 -200 0
-32 -200 0
-31 -200 0
-47 -98 0
-32 -98 0
-31 -98 0
-32 -47 0
-31 -47 0
-31 -32 0
-38 -181 0
-38 -203 0
-38 -179 0
-38 -200 0
-181 -203 0
-179 -181 0
-181 -200 0
-179 -203 0
-200 -203 0
-179 -200 0
-36 -37 0
-37 -205 0
-37 -71 0
-37 -98 0
-36 -205 0
-36 -71 0
-36 -98 0
-71 -205 0
-98 -205 0
-71 -98 0
-126 -206 0
-206 -223 0
-59 -206 0
-206 -209 0
-126 -223 0
-59 -126 0
-126 -209 0
-59 -223 0
-209 -223 0
-59 -209 0
-107 -195 0
-107 -228 0
-107 -185 0
-107 -212 0
-195 -228 0
-185 -195 0
-195 -212 0
-185 -228 0
-212 -228 0
-185 -212 0
-108 -171 0
-108 -230 0
-108 -189 0
-33 -108 0
-58 -108 0
-47 -108 0
-171 -230 0
-171 -189 0
-33 -171 0
-58 -171 0
-47 -171 0
-189 -230 0
-33 -230 0
-58 -230 0
-47 -230 0
-33 -189 0
-58 -189 0
-47 -189 0
-33 -58 0
-33 -47 0
-47 -58 0
-89 -129 0
-89 -165 0
-35 -89 0
-82 -89 0
-89 -186 0
-32 -89 0
-129 -165 0
-35 -129 0
-82 -129 0
-129 -186 0
-32 -129 0
-35 -165 0
-82 -165 0
-165 -186 0
-32 -165 0
-35 -82 0
-35 -186 0
-32 -35 0
-82 -186 0
-32 -82 0
-32 -186 0
-68 -97 0
-68 -178 0
-68 -198 0
-68 -80 0
-68 -193 0
-31 -68 0
-97 -178 0
-97 -198 0
-80 -97 0
-97 -193 0
-31 -97 0
-178 -198 0
-80 -178 0
-178 -193 0
-31 -178 0
-80 -198 0
-193 -198 0
-31 -198 0
-80 -193 0
-31 -80 0
-31 -193 0
-151 -156 0
-151 -160 0
-30 -151 0
-156 -160 0
-30 -156 0
-30 -160 0
-106 -110 0
-106 -149 0
-29 -106 0
-110 -149 0
-29 -110 0
-29 -149 0
-73 -190 0
-28 -73 0
-73 -222 0
-73 -207 0
-28 -190 0
-190 -222 0
-190 -207 0
-28 -222 0
-28 -207 0
-207 -222 0
-69 -88 0
-88 -182 0
-61 -88 0
-88 -125 0
-69 -182 0
-61 -69 0
-69 -125 0
-61 -182 0
-125 -182 0
-61 -125 0
-96 -130 0
-130 -173 0
-48 -130 0
-27 -130 0
-96 -173 0
-48 -96 0
-27 -96 0
-48 -173 0
-27 -173 0
-27 -48 0
-106 -151 0
-73 -151 0
-88 -151 0
-130 -151 0
-73 -106 0
-88 -106 0
-106 -130 0
-73 -88 0
-73 -130 0
-88 -130 0
-110 -156 0
-156 -190 0
-69 -156 0
-96 -156 0
-110 -190 0
-69 -110 0
-96 -110 0
-69 -190 0
-96 -190 0
-69 -96 0
-149 -160 0
-28 -160 0
-160 -182 0
-160 -173 0
-28 -149 0
-149 -182 0
-149 -173 0
-28 -182 0
-28 -173 0
-173 -182 0
-29 -30 0
-30 -222 0
-30 -61 0
-30 -48 0
-29 -222 0
-29 -61 0
-29 -48 0
-61 -222 0
-48 -222 0
-48 -61 0
-125 -207 0
-27 -207 0
-27 -125 0
-113 -128 0
-128 -134 0
-113 -134 0
-26 -77 0
-77 -102 0
-26 -102 0
-164 -215 0
-152 -164 0
-152 -215 0
-77 -128 0
-128 -164 0
-77 -164 0
-26 -113 0
-113 -215 0
-26 -215 0
-102 -134 0
-134 -152 0
-102 -152 0
-104 -146 0
-146 -148 0
-24 -146 0
-104 -148 0
-24 -104 0
-24 -148 0
-115 -144 0
-76 -115 0
-75 -115 0
-76 -144 0
-75 -144 0
-75 -76 0
-23 -157 0
-157 -191 0
-22 -157 0
-157 -199 0
-23 -191 0
-22 -23 0
-23 -199 0
-22 -191 0
-191 -199 0
-22 -199 0
-21 -90 0
-20 -21 0
-21 -218 0
-21 -220 0
-20 -90 0
-90 -218 0
-90 -220 0
-20 -218 0
-20 -220 0
-218 -220 0
-19 -64 0
-19 -57 0
-19 -55 0
-19 -25 0
-57 -64 0
-55 -64 0
-25 -64 0
-55 -57 0
-25 -57 0
-25 -55 0
-18 -50 0
-50 -210 0
-43 -50 0
-50 -214 0
-18 -210 0
-18 -43 0
-18 -214 0
-43 -210 0
-210 -214 0
-43 -214 0
-115 -146 0
-21 -157 0
-19 -157 0
-50 -157 0
-19 -21 0
-21 -50 0
-19 -50 0
-23 -90 0
-23 -64 0
-18 -23 0
-64 -90 0
-18 -90 0
-18 -64 0
-104 -144 0
-104 -191 0
-20 -104 0
-57 -104 0
-104 -210 0
-144 -191 0
-20 -144 0
-57 -144 0
-144 -210 0
-20 -191 0
-57 -191 0
-191 -210 0
-20 -57 0
-20 -210 0
-57 -210 0
-76 -148 0
-22 -148 0
-148 -218 0
-55 -148 0
-43 -148 0
-22 -76 0
-76 -218 0
-55 -76 0
-43 -76 0
-22 -218 0
-22 -55 0
-22 -43 0
-55 -218 0
-43 -218 0
-43 -55 0
-24 -75 0
-24 -199 0
-24 -220 0
-24 -25 0
-24 -214 0
-75 -199 0
-75 -220 0
-25 -75 0
-75 -214 0
-199 -220 0
-25 -199 0
-199 -214 0
-25 -220 0
-214 -220 0
-25 -214 0
-103 -208 0
-116 -172 0
-172 -180 0
-116 -180 0
-187 -194 0
-187 -201 0
-194 -201 0
-17 -192 0
-17 -227 0
-17 -111 0
-192 -227 0
-111 -192 0
-111 -227 0
-51 -54 0
-46 -54 0
-16 -54 0
-46 -51 0
-16 -51 0
-16 -46 0
-17 -103 0
-54 -103 0
-17 -54 0
-192 -208 0
-51 -208 0
-51 -192 0
-172 -187 0
-116 -194 0
-116 -227 0
-46 -116 0
-194 -227 0
-46 -194 0
-46 -227 0
-180 -201 0
-111 -180 0
-16 -180 0
-111 -201 0
-16 -201 0
-16 -111 0
-132 -225 0
-15 -132 0
-132 -159 0
-121 -132 0
-87 -132 0
-66 -132 0
-15 -225 0
-159 -225 0
-121 -225 0
-87 -225 0
-66 -225 0
-15 -159 0
-15 -121 0
-15 -87 0
-15 -66 0
-121 -159 0
-87 -159 0
-66 -159 0
-87 -121 0
-66 -121 0
-66 -87 0
-138 -140 0
-138 -162 0
-14 -138 0
-100 -138 0
-52 -138 0
-94 -138 0
-140 -162 0
-14 -140 0
-100 -140 0
-52 -140 0
-94 -140 0
-14 -162 0
-100 -162 0
-52 -162 0
-94 -162 0
-14 -100 0
-14 -52 0
-14 -94 0
-52 -100 0
-94 -100 0
-52 -94 0
-92 -124 0
-84 -124 0
-12 -124 0
-81 -124 0
-124 -141 0
-74 -124 0
-84 -92 0
-12 -92 0
-81 -92 0
-92 -141 0
-74 -92 0
-12 -84 0
-81 -84 0
-84 -141 0
-74 -84 0
-12 -81 0
-12 -141 0
-12 -74 0
-81 -141 0
-74 -81 0
-74 -141 0
-10 -183 0
-183 -196 0
-170 -183 0
-131 -183 0
-10 -196 0
-10 -170 0
-10 -131 0
-170 -196 0
-131 -196 0
-131 -170 0
-117 -174 0
-9 -174 0
-145 -174 0
-78 -174 0
-9 -117 0
-117 -145 0
-78 -117 0
-9 -145 0
-9 -78 0
-78 -145 0
-202 -224 0
-202 -229 0
-202 -231 0
-166 -202 0
-224 -229 0
-224 -231 0
-166 -224 0
-229 -231 0
-166 -229 0
-166 -231 0
-60 -63 0
-63 -184 0
-63 -188 0
-34 -63 0
-60 -184 0
-60 -188 0
-34 -60 0
-184 -188 0
-34 -184 0
-34 -188 0
-132 -138 0
-124 -132 0
-132 -183 0
-132 -174 0
-124 -138 0
-138 -183 0
-138 -174 0
-124 -183 0
-124 -174 0
-174 -183 0
-140 -225 0
-92 -225 0
-10 -225 0
-117 -225 0
-92 -140 0
-10 -140 0
-117 -140 0
-10 -92 0
-92 -117 0
-10 -117 0
-15 -162 0
-15 -84 0
-15 -202 0
-15 -63 0
-84 -162 0
-162 -202 0
-63 -162 0
-84 -202 0
-63 -84 0
-63 -202 0
-14 -159 0
-12 -159 0
-159 -224 0
-60 -159 0
-12 -14 0
-14 -224 0
-14 -60 0
-12 -224 0
-12 -60 0
-60 -224 0
-100 -121 0
-81 -121 0
-121 -196 0
-9 -121 0
-121 -229 0
-121 -184 0
-81 -100 0
-100 -196 0
-9 -100 0
-100 -229 0
-100 -184 0
-81 -196 0
-9 -81 0
-81 -229 0
-81 -184 0
-9 -196 0
-196 -229 0
-184 -196 0
-9 -229 0
-9 -184 0
-184 -229 0
-52 -87 0
-87 -141 0
-87 -170 0
-87 -145 0
-87 -231 0
-87 -188 0
-52 -141 0
-52 -170 0
-52 -145 0
-52 -231 0
-52 -188 0
-141 -170 0
-141 -145 0
-141 -231 0
-141 -188 0
-145 -170 0
-170 -231 0
-170 -188 0
-145 -231 0
-145 -188 0
-188 -231 0
-66 -94 0
-66 -74 0
-66 -131 0
-66 -78 0
-66 -166 0
-34 -66 0
-74 -94 0
-94 -131 0
-78 -94 0
-94 -166 0
-34 -94 0
-74 -131 0
-74 -78 0
-74 -166 0
-34 -74 0
-78 -131 0
-131 -166 0
-34 -131 0
-78 -166 0
-34 -78 0
-34 -166 0
-135 -167 0
-8 -135 0
-119 -135 0
-135 -154 0
-8 -167 0
-119 -167 0
-154 -167 0
-8 -119 0
-8 -154 0
-119 -154 0
-83 -85 0
-7 -85 0
-85 -136 0
-85 -161 0
-7 -83 0
-83 -136 0
-83 -161 0
-7 -136 0
-7 -161 0
-136 -161 0
-5 -6 0
-4 -6 0
-6 -95 0
-6 -176 0
-4 -5 0
-5 -95 0
-5 -176 0
-4 -95 0
-4 -176 0
-95 -176 0
-105 -204 0
-109 -204 0
-150 -204 0
-204 -213 0
-105 -109 0
-105 -150 0
-105 -213 0
-109 -150 0
-109 -213 0
-150 -213 0
-3 -197 0
-2 -3 0
-3 -133 0
-3 -226 0
-3 -175 0
-3 -158 0
-2 -197 0
-133 -197 0
-197 -226 0
-175 -197 0
-158 -197 0
-2 -133 0
-2 -226 0
-2 -175 0
-2 -158 0
-133 -226 0
-133 -175 0
-133 -158 0
-175 -226 0
-158 -226 0
-158 -175 0
-67 -86 0
-1 -86 0
-86 -137 0
-86 -139 0
-56 -86 0
-13 -86 0
-1 -67 0
-67 -137 0
-67 -139 0
-56 -67 0
-13 -67 0
-1 -137 0
-1 -139 0
-1 -56 0
-1 -13 0
-137 -139 0
-56 -137 0
-13 -137 0
-56 -139 0
-13 -139 0
-13 -56 0
-53 -93 0
-49 -53 0
-53 -123 0
-53 -91 0
-45 -53 0
-11 -53 0
-49 -93 0
-93 -123 0
-91 -93 0
-45 -93 0
-11 -93 0
-49 -123 0
-49 -91 0
-45 -49 0
-11 -49 0
-91 -123 0
-45 -123 0
-11 -123 0
-45 -91 0
-11 -91 0
-11 -45 0
-6 -204 0
-3 -6 0
-6 -86 0
-6 -53 0
-3 -204 0
-86 -204 0
-53 -204 0
-3 -86 0
-3 -53 0
-53 -86 0
-5 -105 0
-5 -197 0
-5 -67 0
-5 -93 0
-105 -197 0
-67 -105 0
-93 -105 0
-67 -197 0
-93 -197 0
-67 -93 0
-85 -135 0
-4 -135 0
-109 -135 0
-2 -135 0
-1 -135 0
-49 -135 0
-4 -85 0
-85 -109 0
-2 -85 0
-1 -85 0
-49 -85 0
-4 -109 0
-2 -4 0
-1 -4 0
-4 -49 0
-2 -109 0
-1 -109 0
-49 -109 0
-1 -2 0
-2 -49 0
-1 -49 0
-83 -167 0
-95 -167 0
-150 -167 0
-133 -167 0
-137 -167 0
-123 -167 0
-83 -95 0
-83 -150 0
-83 -133 0
-83 -137 0
-83 -123 0
-95 -150 0
-95 -133 0
-95 -137 0
-95 -123 0
-133 -150 0
-137 -150 0
-123 -150 0
-133 -137 0
-123 -133 0
-123 -137 0
-7 -8 0
-8 -176 0
-8 -213 0
-8 -226 0
-8 -139 0
-8 -91 0
-7 -176 0
-7 -213 0
-7 -226 0
-7 -139 0
-7 -91 0
-176 -213 0
-176 -226 0
-139 -176 0
-91 -176 0
-213 -226 0
-139 -213 0
-91 -213 0
-139 -226 0
-91 -226 0
-91 -139 0
-119 -136 0
-119 -175 0
-56 -119 0
-45 -119 0
-136 -175 0
-56 -136 0
-45 -136 0
-56 -175 0
-45 -175 0
-45 -56 0
-154 -161 0
-154 -158 0
-13 -154 0
-11 -154 0
-158 -161 0
-13 -161 0
-11 -161 0
-13 -158 0
-11 -158 0
-11 -13 0
-153 -169 0
-151 -156 0
-106 -151 0
-110 -151 0
-106 -156 0
-110 -156 0
-106 -110 0
-77 -128 0
-128 -164 0
-77 -164 0
-115 -146 0
-103 -208 0
-132 -225 0
-132 -138 0
-132 -140 0
-124 -132 0
-92 -132 0
-138 -225 0
-140 -225 0
-124 -225 0
-92 -225 0
-138 -140 0
-124 -138 0
-92 -138 0
-124 -140 0
-92 -140 0
-92 -124 0
-107 -206 0
-126 -206 0
-195 -206 0
-107 -126 0
-107 -195 0
-126 -195 0
-30 -160 0
-149 -160 0
-29 -160 0
-30 -149 0
-29 -30 0
-29 -149 0
-26 -113 0
-113 -215 0
-26 -215 0
-15 -159 0
-15 -162 0
-14 -15 0
-15 -84 0
-12 -15 0
-159 -162 0
-14 -159 0
-84 -159 0
-12 -159 0
-14 -162 0
-84 -162 0
-12 -162 0
-14 -84 0
-12 -14 0
-12 -84 0
-135 -167 0
-8 -135 0
-85 -135 0
-83 -135 0
-7 -135 0
-8 -167 0
-85 -167 0
-83 -167 0
-7 -167 0
-8 -85 0
-8 -83 0
-7 -8 0
-83 -85 0
-7 -85 0
-7 -83 0
-217 -219 0
-70 -142 0
-118 -142 0
-99 -142 0
-70 -118 0
-70 -99 0
-99 -118 0
-89 -108 0
-68 -108 0
-108 -171 0
-108 -129 0
-97 -108 0
-68 -89 0
-89 -171 0
-89 -129 0
-89 -97 0
-68 -171 0
-68 -129 0
-68 -97 0
-129 -171 0
-97 -171 0
-97 -129 0
-102 -134 0
-134 -152 0
-102 -152 0
-104 -148 0
-24 -104 0
-104 -144 0
-76 -104 0
-75 -104 0
-24 -148 0
-144 -148 0
-76 -148 0
-75 -148 0
-24 -144 0
-24 -76 0
-24 -75 0
-76 -144 0
-75 -144 0
-75 -76 0
-87 -121 0
-66 -121 0
-100 -121 0
-52 -121 0
-94 -121 0
-81 -121 0
-121 -141 0
-74 -121 0
-66 -87 0
-87 -100 0
-52 -87 0
-87 -94 0
-81 -87 0
-87 -141 0
-74 -87 0
-66 -100 0
-52 -66 0
-66 -94 0
-66 -81 0
-66 -141 0
-66 -74 0
-52 -100 0
-94 -100 0
-81 -100 0
-100 -141 0
-74 -100 0
-52 -94 0
-52 -81 0
-52 -141 0
-52 -74 0
-81 -94 0
-94 -141 0
-74 -94 0
-81 -141 0
-74 -81 0
-74 -141 0
-119 -154 0
-119 -136 0
-119 -161 0
-136 -154 0
-154 -161 0
-136 -161 0
-37 -38 0
-38 -181 0
-36 -38 0
-38 -203 0
-38 -205 0
-37 -181 0
-36 -37 0
-37 -203 0
-37 -205 0
-36 -181 0
-181 -203 0
-181 -205 0
-36 -203 0
-36 -205 0
-203 -205 0
-10 -183 0
-174 -183 0
-117 -183 0
-10 -174 0
-10 -117 0
-117 -174 0
-5 -6 0
-6 -204 0
-6 -105 0
-5 -204 0
-5 -105 0
-105 -204 0
-127 -155 0
-127 -163 0
-127 -211 0
-155 -163 0
-155 -211 0
-163 -211 0
-41 -79 0
-79 -114 0
-79 -122 0
-41 -114 0
-41 -122 0
-114 -122 0
-223 -228 0
-59 -223 0
-185 -223 0
-209 -223 0
-212 -223 0
-59 -228 0
-185 -228 0
-209 -228 0
-212 -228 0
-59 -185 0
-59 -209 0
-59 -212 0
-185 -209 0
-185 -212 0
-209 -212 0
-23 -157 0
-21 -157 0
-90 -157 0
-21 -23 0
-23 -90 0
-21 -90 0
-172 -187 0
-4 -95 0
-4 -176 0
-4 -109 0
-4 -150 0
-4 -213 0
-95 -176 0
-95 -109 0
-95 -150 0
-95 -213 0
-109 -176 0
-150 -176 0
-176 -213 0
-109 -150 0
-109 -213 0
-150 -213 0
-112 -177 0
-44 -177 0
-177 -216 0
-44 -112 0
-112 -216 0
-44 -216 0
-120 -168 0
-40 -168 0
-143 -168 0
-40 -120 0
-120 -143 0
-40 -143 0
-165 -230 0
-178 -230 0
-189 -230 0
-35 -230 0
-198 -230 0
-33 -230 0
-82 -230 0
-80 -230 0
-165 -178 0
-165 -189 0
-35 -165 0
-165 -198 0
-33 -165 0
-82 -165 0
-80 -165 0
-178 -189 0
-35 -178 0
-178 -198 0
-33 -178 0
-82 -178 0
-80 -178 0
-35 -189 0
-189 -198 0
-33 -189 0
-82 -189 0
-80 -189 0
-35 -198 0
-33 -35 0
-35 -82 0
-35 -80 0
-33 -198 0
-82 -198 0
-80 -198 0
-33 -82 0
-33 -80 0
-80 -82 0
-22 -191 0
-191 -199 0
-20 -191 0
-191 -218 0
-191 -220 0
-22 -199 0
-20 -22 0
-22 -218 0
-22 -220 0
-20 -199 0
-199 -218 0
-199 -220 0
-20 -218 0
-20 -220 0
-218 -220 0
-116 -180 0
-116 -194 0
-116 -201 0
-180 -194 0
-180 -201 0
-194 -201 0
-170 -196 0
-131 -196 0
-9 -196 0
-145 -196 0
-78 -196 0
-131 -170 0
-9 -170 0
-145 -170 0
-78 -170 0
-9 -131 0
-131 -145 0
-78 -131 0
-9 -145 0
-9 -78 0
-78 -145 0
-42 -72 0
-71 -179 0
-179 -200 0
-98 -179 0
-71 -200 0
-71 -98 0
-98 -200 0
-73 -190 0
-73 -88 0
-69 -73 0
-73 -130 0
-73 -96 0
-88 -190 0
-69 -190 0
-130 -190 0
-96 -190 0
-69 -88 0
-88 -130 0
-88 -96 0
-69 -130 0
-69 -96 0
-96 -130 0
-17 -192 0
-17 -54 0
-17 -51 0
-54 -192 0
-51 -192 0
-51 -54 0
-3 -197 0
-3 -86 0
-3 -67 0
-3 -53 0
-3 -93 0
-86 -197 0
-67 -197 0
-53 -197 0
-93 -197 0
-67 -86 0
-53 -86 0
-86 -93 0
-53 -67 0
-67 -93 0
-53 -93 0
-147 -221 0
-65 -147 0
-62 -147 0
-65 -221 0
-62 -221 0
-62 -65 0
-39 -101 0
-28 -222 0
-28 -182 0
-28 -61 0
-28 -173 0
-28 -48 0
-182 -222 0
-61 -222 0
-173 -222 0
-48 -222 0
-61 -182 0
-173 -182 0
-48 -182 0
-61 -173 0
-48 -61 0
-48 -173 0
-19 -64 0
-19 -50 0
-18 -19 0
-50 -64 0
-18 -64 0
-18 -50 0
-202 -224 0
-63 -202 0
-60 -202 0
-63 -224 0
-60 -224 0
-60 -63 0
-2 -133 0
-2 -226 0
-1 -2 0
-2 -137 0
-2 -139 0
-2 -49 0
-2 -123 0
-2 -91 0
-133 -226 0
-1 -133 0
-133 -137 0
-133 -139 0
-49 -133 0
-123 -133 0
-91 -133 0
-1 -226 0
-137 -226 0
-139 -226 0
-49 -226 0
-123 -226 0
-91 -226 0
-1 -137 0
-1 -139 0
-1 -49 0
-1 -123 0
-1 -91 0
-137 -139 0
-49 -137 0
-123 -137 0
-91 -137 0
-49 -139 0
-123 -139 0
-91 -139 0
-49 -123 0
-49 -91 0
-91 -123 0
-58 -186 0
-58 -193 0
-47 -58 0
-32 -58 0
-31 -58 0
-186 -193 0
-47 -186 0
-32 -186 0
-31 -186 0
-47 -193 0
-32 -193 0
-31 -193 0
-32 -47 0
-31 -47 0
-31 -32 0
-125 -207 0
-27 -207 0
-27 -125 0
-55 -57 0
-25 -57 0
-57 -210 0
-43 -57 0
-57 -214 0
-25 -55 0
-55 -210 0
-43 -55 0
-55 -214 0
-25 -210 0
-25 -43 0
-25 -214 0
-43 -210 0
-210 -214 0
-43 -214 0
-111 -227 0
-46 -227 0
-16 -227 0
-46 -111 0
-16 -111 0
-16 -46 0
-229 -231 0
-166 -229 0
-184 -229 0
-188 -229 0
-34 -229 0
-166 -231 0
-184 -231 0
-188 -231 0
-34 -231 0
-166 -184 0
-166 -188 0
-34 -166 0
-184 -188 0
-34 -184 0
-34 -188 0
-158 -175 0
-56 -175 0
-13 -175 0
-45 -175 0
-11 -175 0
-56 -158 0
-13 -158 0
-45 -158 0
-11 -158 0
-13 -56 0
-45 -56 0
-11 -56 0
-13 -45 0
-11 -13 0
-11 -45 0
